     Program PWSCF v.6.4.1 starts on 15May2020 at 12:37:25

     Reading input from cuau_7.48_0.927_10.pw.in

     Current dimensions of program PWSCF are:
     Max number of different atomic species (ntypx) = 10
     Max number of k-points (npk) =  40000
     Max angular momentum in pseudopotentials (lmaxx) =  3
     Message from routine read_upf::
     Pseudo file Au.pbe-dn-rrkjus_psl.0.1.UPF has been fixed on the fly.
To avoid this message in the future, permanently fix
 your pseudo files following these instructions:
     Message from routine read_upf::
     Pseudo file Cu.pbe-dn-rrkjus_psl.0.2.UPF has been fixed on the fly.
To avoid this message in the future, permanently fix
 your pseudo files following these instructions:
               file Au.pbe-dn-rrkjus_psl.0.1.UPF: wavefunction(s)  5D renormalized
               file Cu.pbe-dn-rrkjus_psl.0.2.UPF: wavefunction(s)  3D renormalized

     Subspace diagonalization in iterative solution of the eigenvalue problem:
     a serial algorithm will be used

     bravais-lattice index     =            7
     lattice parameter (alat)  =       7.4800  a.u.
     unit-cell volume          =     193.9789 (a.u.)^3
     number of atoms/cell      =            2
     number of atomic types    =            2
     number of electrons       =        22.00
     number of Kohn-Sham states=           15
     kinetic-energy cutoff     =      50.0000  Ry
     charge density cutoff     =     500.0000  Ry
     convergence threshold     =      1.0E-08
     mixing beta               =       0.7000
     number of iterations used =            8  plain     mixing
     Exchange-correlation      = PBE ( 1  4  3  4 0 0)
     nstep                     =           50

     celldm(1)=   7.480000  celldm(2)=   0.000000  celldm(3)=   0.927000
     celldm(4)=   0.000000  celldm(5)=   0.000000  celldm(6)=   0.000000

     crystal axes: (cart. coord. in units of alat)
               a(1) = (   0.500000  -0.500000   0.463500 )
               a(2) = (   0.500000   0.500000   0.463500 )
               a(3) = (  -0.500000  -0.500000   0.463500 )

     reciprocal axes: (cart. coord. in units 2 pi/alat)
               b(1) = (  1.000000 -1.000000  0.000000 )
               b(2) = (  0.000000  1.000000  1.078749 )
               b(3) = ( -1.000000  0.000000  1.078749 )

     PseudoPot. # 1 for Au read from file:
     ./Au.pbe-dn-rrkjus_psl.0.1.UPF
     MD5 check sum: 2577dac56bcf5cc3f91526b665170132
     Pseudo is Ultrasoft + core correction, Zval = 11.0
     Generated using "atomic" code by A. Dal Corso v.5.0.2 svn rev. 9415
     Using radial grid of 1279 points,  6 beta functions with:
                l(1) =   0
                l(2) =   0
                l(3) =   1
                l(4) =   1
                l(5) =   2
                l(6) =   2
     Q(r) pseudized with 0 coefficients

     PseudoPot. # 2 for Cu read from file:
     ./Cu.pbe-dn-rrkjus_psl.0.2.UPF
     MD5 check sum: 1265fa589247fc99ea3a830f142ff47f
     Pseudo is Ultrasoft + core correction, Zval = 11.0
     Generated using "atomic" code by A. Dal Corso v.5.0.2 svn rev. 9415
     Using radial grid of 1199 points,  6 beta functions with:
                l(1) =   0
                l(2) =   0
                l(3) =   1
                l(4) =   1
                l(5) =   2
                l(6) =   2
     Q(r) pseudized with 0 coefficients

     atomic species   valence    mass     pseudopotential
        Au            11.00   196.97000     Au( 1.00)
        Cu            11.00    63.54600     Cu( 1.00)

      4 Sym. Ops., with inversion, found

   Cartesian axes

     site n.     atom                  positions (alat units)
         1           Au  tau(   1) = (   0.0000000   0.0000000   0.0000000  )
         2           Cu  tau(   2) = (   0.2500000  -0.2500000   0.6952500  )

     number of k points=   282  Marzari-Vanderbilt smearing, width (Ry)=  0.0250

     Number of k-points >= 100: set verbosity='high' to print them.

     Check: negative core charge=   -0.000009

     Initial potential from superposition of free atoms

     starting charge   21.99966, renormalised to   22.00000
     Starting wfcs are   18 randomized atomic wfcs

     Self-consistent Calculation

     iteration #  1     ecut=    50.00 Ry     beta= 0.70
     Davidson diagonalization with overlap
     ethr =  1.00E-02,  avg # of iterations =  4.0

     Threshold (ethr) on eigenvalues was too large:
     Diagonalizing with lowered threshold

     Davidson diagonalization with overlap
     ethr =  3.13E-04,  avg # of iterations =  2.4

     total energy              =    -201.30021643 Ry
     Harris-Foulkes estimate   =    -201.35569122 Ry
     estimated scf accuracy    <       0.07193686 Ry

[...]

     End of self-consistent calculation

     Number of k-points >= 100: set verbosity='high' to print the bands.

     the Fermi energy is    15.5181 ev

!    total energy              =    -201.33196136 Ry
     Harris-Foulkes estimate   =    -201.33196136 Ry
     estimated scf accuracy    <          7.7E-10 Ry

     The total energy is the sum of the following terms:

     one-electron contribution =     -45.90862987 Ry
     hartree contribution      =      52.19583806 Ry
     xc contribution           =     -73.49894355 Ry
     ewald contribution        =    -134.12124796 Ry
     smearing contrib. (-TS)   =       0.00102196 Ry

     convergence has been achieved in   8 iterations

     Forces acting on atoms (cartesian axes, Ry/au):

     atom    1 type  1   force =     0.00000000    0.00000000    0.00000000
     atom    2 type  2   force =     0.00000000    0.00000000    0.00000000

     Total force =     0.000000     Total SCF correction =     0.000000

     Computing stress (Cartesian axis) and pressure

          total   stress  (Ry/bohr**3)                   (kbar)     P= 2606.81
   0.01852549  -0.01788590  -0.01655748       2725.19  -2631.11  -2435.69
  -0.01788590   0.01852549   0.01655748      -2631.11   2725.19   2435.69
  -0.01655748   0.01655748   0.01611127      -2435.69   2435.69   2370.05

     BFGS Geometry Optimization

     number of scf cycles    =   1
     number of bfgs steps    =   0

     enthalpy new            =    -201.3319613589 Ry

     new trust radius        =       0.5000000000 bohr
     new conv_thr            =       0.0000000100 Ry

     new unit-cell volume =    254.92299 a.u.^3 (    37.77569 Ang^3 )
     density =     11.45173 g/cm^3

CELL_PARAMETERS (alat=  7.48000000)
   0.561747202  -0.561747202   0.410204016
   0.456878488   0.546871575   0.507283937
  -0.546871575  -0.456878488   0.507283937

ATOMIC_POSITIONS (crystal)
Au       0.000000000   0.000000000   0.000000000
Cu       0.500000000   0.500000000   0.500000000

     Writing output data file CuAu_L10.save/
     NEW-OLD atomic charge density approx. for the potential

     Check: negative core charge=   -0.000011
     extrapolated charge   27.25943, renormalised to   22.00000

[...]

     iteration #  1     ecut=    50.00 Ry     beta= 0.70
     Davidson diagonalization with overlap
     c_bands:  1 eigenvalues not converged
     c_bands:  1 eigenvalues not converged
     c_bands:  1 eigenvalues not converged
     c_bands:  1 eigenvalues not converged
     c_bands:  1 eigenvalues not converged
     c_bands:  1 eigenvalues not converged
     c_bands:  1 eigenvalues not converged
     c_bands:  1 eigenvalues not converged
     c_bands:  1 eigenvalues not converged
     c_bands:  1 eigenvalues not converged
     c_bands:  1 eigenvalues not converged
     c_bands:  1 eigenvalues not converged
     c_bands:  1 eigenvalues not converged
     c_bands:  1 eigenvalues not converged
     ethr =  1.00E-06,  avg # of iterations = 13.6

[...]

     enthalpy old            =    -201.3319613589 Ry
     enthalpy new            =    -202.6212382540 Ry

     CASE: enthalpy_new < enthalpy_old

[...]

     number of scf cycles    =  18
     number of bfgs steps    =  17

     enthalpy old            =    -202.7929423541 Ry
     enthalpy new            =    -202.7929468685 Ry

     CASE: enthalpy_new < enthalpy_old

     new trust radius        =       0.0006724019 bohr
     new conv_thr            =            1.0E-10 Ry

     new unit-cell volume =    199.53240 a.u.^3 (    29.56765 Ang^3 )
     density =     14.63075 g/cm^3

[...]

ATOMIC_POSITIONS (crystal)
Au       0.000000000  -0.000000000  -0.000000000
Cu       0.500000000   0.500000000   0.500000000

     Writing output data file CuAu_L10.save/
     NEW-OLD atomic charge density approx. for the potential

     Check: negative core charge=   -0.000003
     extrapolated charge   22.00192, renormalised to   22.00000

[...]

     Threshold (ethr) on eigenvalues was too large:
     Diagonalizing with lowered threshold

     Davidson diagonalization with overlap
     ethr =  1.93E-08,  avg # of iterations =  1.0

[...]

     bfgs converged in  19 scf cycles and  18 bfgs steps
     (criteria: energy <  1.0E-04 Ry, force <  1.0E-03Ry/Bohr, cell <  5.0E-01kbar)

     End of BFGS Geometry Optimization

     Final enthalpy =    -202.7929470245 Ry
Begin final coordinates
     new unit-cell volume =    199.53240 a.u.^3 (    29.56765 Ang^3 )
     density =     14.63075 g/cm^3

CELL_PARAMETERS (alat=  7.48000000)
   0.563964095  -0.563964095   0.285089179
   0.289411953   0.485157886   0.496240185
  -0.485157886  -0.289411953   0.496240185

ATOMIC_POSITIONS (crystal)
Au       0.000000000  -0.000000000  -0.000000000
Cu       0.500000000   0.500000000   0.500000000
End final coordinates

     Writing output data file CuAu_L10.save/

     A final scf calculation at the relaxed structure.
     The G-vectors are recalculated for the final unit cell
     Results may differ from those at the preceding step.

     bravais-lattice index     =            7
     lattice parameter (alat)  =       7.4800  a.u.
     unit-cell volume          =     199.5324 (a.u.)^3
     number of atoms/cell      =            2
     number of atomic types    =            2
     number of electrons       =        22.00
     number of Kohn-Sham states=           15
     kinetic-energy cutoff     =      50.0000  Ry
     charge density cutoff     =     500.0000  Ry
     convergence threshold     =      1.0E-10
     mixing beta               =       0.7000
     number of iterations used =            8  plain     mixing
     Exchange-correlation      = PBE ( 1  4  3  4 0 0)

     celldm(1)=   7.480000  celldm(2)=   0.000000  celldm(3)=   0.927000
     celldm(4)=   0.000000  celldm(5)=   0.000000  celldm(6)=   0.000000

     crystal axes: (cart. coord. in units of alat)
               a(1) = (   0.563964  -0.563964   0.285089 )
               a(2) = (   0.289412   0.485158   0.496240 )
               a(3) = (  -0.485158  -0.289412   0.496240 )

     reciprocal axes: (cart. coord. in units 2 pi/alat)
               b(1) = (  0.806202 -0.806202  0.318013 )
               b(2) = (  0.413939  0.877100  0.916228 )
               b(3) = ( -0.877100 -0.413939  0.916228 )

     PseudoPot. # 1 for Au read from file:
     ./Au.pbe-dn-rrkjus_psl.0.1.UPF
     MD5 check sum: 2577dac56bcf5cc3f91526b665170132
     Pseudo is Ultrasoft + core correction, Zval = 11.0
     Generated using "atomic" code by A. Dal Corso v.5.0.2 svn rev. 9415
     Using radial grid of 1279 points,  6 beta functions with:
                l(1) =   0
                l(2) =   0
                l(3) =   1
                l(4) =   1
                l(5) =   2
                l(6) =   2
     Q(r) pseudized with 0 coefficients

     PseudoPot. # 2 for Cu read from file:
     ./Cu.pbe-dn-rrkjus_psl.0.2.UPF
     MD5 check sum: 1265fa589247fc99ea3a830f142ff47f
     Pseudo is Ultrasoft + core correction, Zval = 11.0
     Generated using "atomic" code by A. Dal Corso v.5.0.2 svn rev. 9415
     Using radial grid of 1199 points,  6 beta functions with:
                l(1) =   0
                l(2) =   0
                l(3) =   1
                l(4) =   1
                l(5) =   2
                l(6) =   2
     Q(r) pseudized with 0 coefficients

     atomic species   valence    mass     pseudopotential
        Au            11.00   196.97000     Au( 1.00)
        Cu            11.00    63.54600     Cu( 1.00)

      4 Sym. Ops., with inversion, found

   Cartesian axes

     site n.     atom                  positions (alat units)
         1           Au  tau(   1) = (   0.0000000  -0.0000000  -0.0000000  )
         2           Cu  tau(   2) = (   0.1841091  -0.1841091   0.6387848  )

     number of k points=   282  Marzari-Vanderbilt smearing, width (Ry)=  0.0250

     Number of k-points >= 100: set verbosity='high' to print them.

     Check: negative core charge=   -0.000004

     Initial potential from superposition of free atoms

     starting charge   21.99966, renormalised to   22.00000
     Starting wfcs are   18 randomized atomic wfcs

     Self-consistent Calculation

[...]

     total energy              =    -202.80571378 Ry
     Harris-Foulkes estimate   =    -202.80571378 Ry
     estimated scf accuracy    <          6.4E-10 Ry

     iteration # 11     ecut=    50.00 Ry     beta= 0.70
     Davidson diagonalization with overlap
     ethr =  2.93E-12,  avg # of iterations =  2.3

     End of self-consistent calculation

     Number of k-points >= 100: set verbosity='high' to print the bands.

     the Fermi energy is    14.2861 ev

!    total energy              =    -202.80571378 Ry
     Harris-Foulkes estimate   =    -202.80571378 Ry
     estimated scf accuracy    <          3.0E-11 Ry

     The total energy is the sum of the following terms:

     one-electron contribution =     -18.46946640 Ry
     hartree contribution      =      38.71816291 Ry
     xc contribution           =     -72.49873439 Ry
     ewald contribution        =    -150.55592518 Ry
     smearing contrib. (-TS)   =       0.00024927 Ry

     convergence has been achieved in  11 iterations

     Forces acting on atoms (cartesian axes, Ry/au):

     atom    1 type  1   force =    -0.00000000   -0.00000000    0.00000000
     atom    2 type  2   force =     0.00000000    0.00000000   -0.00000000

     Total force =     0.000000     Total SCF correction =     0.000000

     Computing stress (Cartesian axis) and pressure

          total   stress  (Ry/bohr**3)                   (kbar)     P=   53.67
   0.00037694  -0.00036642  -0.00033710         55.45    -53.90    -49.59
  -0.00036642   0.00037694   0.00033710        -53.90     55.45     49.59
  -0.00033710   0.00033710   0.00034059        -49.59     49.59     50.10

     Writing output data file CuAu_L10.save/

     General routines

     Parallel routines

   This run was terminated on:  13:27:27  15May2020

   JOB DONE.