     Program PWSCF v.6.4.1 starts on 16May2020 at 21:12:36

     Reading input from cuau_st_7.48_0.927_10.pw.in

     Current dimensions of program PWSCF are:
     Max number of different atomic species (ntypx) = 10
     Max number of k-points (npk) =  40000
     Max angular momentum in pseudopotentials (lmaxx) =  3
     Message from routine read_upf::
     Pseudo file Au.pbe-dn-rrkjus_psl.0.1.UPF has been fixed on the fly.
To avoid this message in the future, permanently fix
 your pseudo files following these instructions:
     Message from routine read_upf::
     Pseudo file Cu.pbe-dn-rrkjus_psl.0.2.UPF has been fixed on the fly.
To avoid this message in the future, permanently fix
 your pseudo files following these instructions:
               file Au.pbe-dn-rrkjus_psl.0.1.UPF: wavefunction(s)  5D renormalized
               file Cu.pbe-dn-rrkjus_psl.0.2.UPF: wavefunction(s)  3D renormalized

     Subspace diagonalization in iterative solution of the eigenvalue problem:
     a serial algorithm will be used

     bravais-lattice index     =            6
     lattice parameter (alat)  =       7.4800  a.u.
     unit-cell volume          =     387.9578 (a.u.)^3
     number of atoms/cell      =            2
     number of atomic types    =            2
     number of electrons       =        22.00
     number of Kohn-Sham states=           15
     kinetic-energy cutoff     =      50.0000  Ry
     charge density cutoff     =     500.0000  Ry
     convergence threshold     =      1.0E-08
     mixing beta               =       0.7000
     number of iterations used =            8  plain     mixing
     Exchange-correlation      = PBE ( 1  4  3  4 0 0)
     nstep                     =           50

     celldm(1)=   7.480000  celldm(2)=   0.000000  celldm(3)=   0.927000
     celldm(4)=   0.000000  celldm(5)=   0.000000  celldm(6)=   0.000000

     crystal axes: (cart. coord. in units of alat)
               a(1) = (   1.000000   0.000000   0.000000 )
               a(2) = (   0.000000   1.000000   0.000000 )
               a(3) = (   0.000000   0.000000   0.927000 )

     reciprocal axes: (cart. coord. in units 2 pi/alat)
               b(1) = (  1.000000  0.000000  0.000000 )
               b(2) = (  0.000000  1.000000  0.000000 )
               b(3) = (  0.000000  0.000000  1.078749 )

     PseudoPot. # 1 for Au read from file:
     ./Au.pbe-dn-rrkjus_psl.0.1.UPF
     MD5 check sum: 2577dac56bcf5cc3f91526b665170132
     Pseudo is Ultrasoft + core correction, Zval = 11.0
     Generated using "atomic" code by A. Dal Corso v.5.0.2 svn rev. 9415
     Using radial grid of 1279 points,  6 beta functions with:
                l(1) =   0
                l(2) =   0
                l(3) =   1
                l(4) =   1
                l(5) =   2
                l(6) =   2
     Q(r) pseudized with 0 coefficients

     PseudoPot. # 2 for Cu read from file:
     ./Cu.pbe-dn-rrkjus_psl.0.2.UPF
     MD5 check sum: 1265fa589247fc99ea3a830f142ff47f
     Pseudo is Ultrasoft + core correction, Zval = 11.0
     Generated using "atomic" code by A. Dal Corso v.5.0.2 svn rev. 9415
     Using radial grid of 1199 points,  6 beta functions with:
                l(1) =   0
                l(2) =   0
                l(3) =   1
                l(4) =   1
                l(5) =   2
                l(6) =   2
     Q(r) pseudized with 0 coefficients

     atomic species   valence    mass     pseudopotential
        Au            11.00   196.97000     Au( 1.00)
        Cu            11.00    63.54600     Cu( 1.00)

     16 Sym. Ops., with inversion, found

   Cartesian axes

     site n.     atom                  positions (alat units)
         1           Au  tau(   1) = (   0.0000000   0.0000000   0.0000000  )
         2           Cu  tau(   2) = (   0.5000000   0.5000000   0.4635000  )

     number of k points=   126  Marzari-Vanderbilt smearing, width (Ry)=  0.0250

     Number of k-points >= 100: set verbosity='high' to print them.

     Check: negative core charge=   -0.000015

     Initial potential from superposition of free atoms

     starting charge   21.99966, renormalised to   22.00000
     Starting wfcs are   18 randomized atomic wfcs

     Self-consistent Calculation

     iteration #  1     ecut=    50.00 Ry     beta= 0.70
     Davidson diagonalization with overlap
     ethr =  1.00E-02,  avg # of iterations =  2.6

     Threshold (ethr) on eigenvalues was too large:
     Diagonalizing with lowered threshold

     Davidson diagonalization with overlap
     ethr =  4.31E-04,  avg # of iterations =  1.4

     total energy              =    -202.56904270 Ry
     Harris-Foulkes estimate   =    -202.64585554 Ry
     estimated scf accuracy    <       0.09612902 Ry

[...]

     End of self-consistent calculation

     Number of k-points >= 100: set verbosity='high' to print the bands.

     the Fermi energy is     4.6924 ev

!    total energy              =    -202.62903487 Ry
     Harris-Foulkes estimate   =    -202.62903487 Ry
     estimated scf accuracy    <          2.2E-09 Ry

     The total energy is the sum of the following terms:

     one-electron contribution =     -65.05054744 Ry
     hartree contribution      =      55.31720851 Ry
     xc contribution           =     -72.16158036 Ry
     ewald contribution        =    -120.73461970 Ry
     smearing contrib. (-TS)   =       0.00050413 Ry

     convergence has been achieved in   9 iterations

     Forces acting on atoms (cartesian axes, Ry/au):

     atom    1 type  1   force =     0.00000000    0.00000000    0.00000000
     atom    2 type  2   force =     0.00000000    0.00000000    0.00000000

     Total force =     0.000000     Total SCF correction =     0.000000

     Computing stress (Cartesian axis) and pressure

          total   stress  (Ry/bohr**3)                   (kbar)     P= -138.75
  -0.00093050   0.00000000   0.00000000       -136.88      0.00      0.00
   0.00000000  -0.00093050   0.00000000          0.00   -136.88      0.00
   0.00000000   0.00000000  -0.00096870          0.00      0.00   -142.50

     BFGS Geometry Optimization

     number of scf cycles    =   1
     number of bfgs steps    =   0

     enthalpy new            =    -202.6290348660 Ry

     new trust radius        =       0.0954005160 bohr
     new conv_thr            =       0.0000000100 Ry

     new unit-cell volume =    361.15475 a.u.^3 (    53.51761 Ang^3 )
     density =      8.08326 g/cm^3

CELL_PARAMETERS (alat=  7.48000000)
   0.976737540   0.000000000   0.000000000
   0.000000000   0.976737540   0.000000000
   0.000000000   0.000000000   0.904550421

ATOMIC_POSITIONS (crystal)
Au       0.000000000   0.000000000   0.000000000
Cu       0.500000000   0.500000000   0.500000000

     Writing output data file CuAu_L10.save/
     NEW-OLD atomic charge density approx. for the potential

     Check: negative core charge=   -0.000010
     extrapolated charge   20.36730, renormalised to   22.00000

[...]

     enthalpy old            =    -202.6290348660 Ry
     enthalpy new            =    -202.6567705818 Ry

     CASE: enthalpy_new < enthalpy_old

     WARNING: bfgs curvature condition failed, Theta= 0.712
     uphill step: resetting bfgs history

[...]

     WARNING: bfgs curvature condition failed, Theta= 0.841
     new trust radius        =       0.1580752040 bohr
     new conv_thr            =            1.0E-10 Ry

[...]

     Writing output data file CuAu_L10.save/
     NEW-OLD atomic charge density approx. for the potential
     extrapolated charge   13.16123, renormalised to   22.00000

[...]

     CASE: enthalpy_new > enthalpy_old

[...]

     Writing output data file CuAu_L10.save/
     NEW-OLD atomic charge density approx. for the potential

     Check: negative core charge=   -0.000001
     extrapolated charge   26.37745, renormalised to   22.00000

[...]

     Threshold (ethr) on eigenvalues was too large:
     Diagonalizing with lowered threshold

     Davidson diagonalization with overlap
     ethr =  5.05E-09,  avg # of iterations =  2.1

[...]

     number of scf cycles    =  15
     number of bfgs steps    =  13

     enthalpy old            =    -202.8115947016 Ry
     enthalpy new            =    -202.8115995079 Ry

     CASE: enthalpy_new < enthalpy_old

     new trust radius        =       0.0007752544 bohr
     new conv_thr            =            1.0E-10 Ry

     new unit-cell volume =    205.18429 a.u.^3 (    30.40517 Ang^3 )
     density =     14.22774 g/cm^3

[...]

ATOMIC_POSITIONS (crystal)
Au       0.000000000   0.000000000   0.000000000
Cu       0.500000000   0.500000000   0.500000000

     Writing output data file CuAu_L10.save/
     NEW-OLD atomic charge density approx. for the potential
     extrapolated charge   22.00513, renormalised to   22.00000

[...]

     bfgs converged in  16 scf cycles and  14 bfgs steps
     (criteria: energy <  1.0E-04 Ry, force <  1.0E-03Ry/Bohr, cell <  5.0E-01kbar)

     End of BFGS Geometry Optimization

     Final enthalpy =    -202.8115996341 Ry
Begin final coordinates
     new unit-cell volume =    205.18429 a.u.^3 (    30.40517 Ang^3 )
     density =     14.22774 g/cm^3

CELL_PARAMETERS (alat=  7.48000000)
   0.806525450   0.000000000   0.000000000
   0.000000000   0.806525450   0.000000000
   0.000000000   0.000000000   0.753708047

ATOMIC_POSITIONS (crystal)
Au       0.000000000   0.000000000   0.000000000
Cu       0.500000000   0.500000000   0.500000000
End final coordinates

     Writing output data file CuAu_L10.save/

     A final scf calculation at the relaxed structure.
     The G-vectors are recalculated for the final unit cell
     Results may differ from those at the preceding step.

     bravais-lattice index     =            6
     lattice parameter (alat)  =       7.4800  a.u.
     unit-cell volume          =     205.1843 (a.u.)^3
     number of atoms/cell      =            2
     number of atomic types    =            2
     number of electrons       =        22.00
     number of Kohn-Sham states=           15
     kinetic-energy cutoff     =      50.0000  Ry
     charge density cutoff     =     500.0000  Ry
     convergence threshold     =      1.0E-10
     mixing beta               =       0.7000
     number of iterations used =            8  plain     mixing
     Exchange-correlation      = PBE ( 1  4  3  4 0 0)

     celldm(1)=   7.480000  celldm(2)=   0.000000  celldm(3)=   0.927000
     celldm(4)=   0.000000  celldm(5)=   0.000000  celldm(6)=   0.000000

     crystal axes: (cart. coord. in units of alat)
               a(1) = (   0.806525   0.000000   0.000000 )
               a(2) = (   0.000000   0.806525   0.000000 )
               a(3) = (   0.000000   0.000000   0.753708 )

     reciprocal axes: (cart. coord. in units 2 pi/alat)
               b(1) = (  1.239886  0.000000  0.000000 )
               b(2) = (  0.000000  1.239886  0.000000 )
               b(3) = (  0.000000  0.000000  1.326774 )

     PseudoPot. # 1 for Au read from file:
     ./Au.pbe-dn-rrkjus_psl.0.1.UPF
     MD5 check sum: 2577dac56bcf5cc3f91526b665170132
     Pseudo is Ultrasoft + core correction, Zval = 11.0
     Generated using "atomic" code by A. Dal Corso v.5.0.2 svn rev. 9415
     Using radial grid of 1279 points,  6 beta functions with:
                l(1) =   0
                l(2) =   0
                l(3) =   1
                l(4) =   1
                l(5) =   2
                l(6) =   2
     Q(r) pseudized with 0 coefficients

     PseudoPot. # 2 for Cu read from file:
     ./Cu.pbe-dn-rrkjus_psl.0.2.UPF
     MD5 check sum: 1265fa589247fc99ea3a830f142ff47f
     Pseudo is Ultrasoft + core correction, Zval = 11.0
     Generated using "atomic" code by A. Dal Corso v.5.0.2 svn rev. 9415
     Using radial grid of 1199 points,  6 beta functions with:
                l(1) =   0
                l(2) =   0
                l(3) =   1
                l(4) =   1
                l(5) =   2
                l(6) =   2
     Q(r) pseudized with 0 coefficients

     atomic species   valence    mass     pseudopotential
        Au            11.00   196.97000     Au( 1.00)
        Cu            11.00    63.54600     Cu( 1.00)

     16 Sym. Ops., with inversion, found

   Cartesian axes

     site n.     atom                  positions (alat units)
         1           Au  tau(   1) = (   0.0000000   0.0000000   0.0000000  )
         2           Cu  tau(   2) = (   0.4032627   0.4032627   0.3768540  )

     number of k points=   126  Marzari-Vanderbilt smearing, width (Ry)=  0.0250

     Number of k-points >= 100: set verbosity='high' to print them.

     Check: negative core charge=   -0.000005

     Initial potential from superposition of free atoms

     starting charge   21.99966, renormalised to   22.00000
     Starting wfcs are   18 randomized atomic wfcs

     Self-consistent Calculation

[...]

     total energy              =    -202.81112369 Ry
     Harris-Foulkes estimate   =    -202.81112369 Ry
     estimated scf accuracy    <          8.4E-10 Ry

     iteration # 11     ecut=    50.00 Ry     beta= 0.70
     Davidson diagonalization with overlap
     ethr =  3.84E-12,  avg # of iterations =  2.8

     End of self-consistent calculation

     Number of k-points >= 100: set verbosity='high' to print the bands.

     the Fermi energy is    13.7238 ev

!    total energy              =    -202.81112369 Ry
     Harris-Foulkes estimate   =    -202.81112369 Ry
     estimated scf accuracy    <          4.2E-11 Ry

     The total energy is the sum of the following terms:

     one-electron contribution =     -20.28469541 Ry
     hartree contribution      =      39.23028628 Ry
     xc contribution           =     -72.45650886 Ry
     ewald contribution        =    -149.30015565 Ry
     smearing contrib. (-TS)   =      -0.00005005 Ry

     convergence has been achieved in  11 iterations

     Forces acting on atoms (cartesian axes, Ry/au):

     atom    1 type  1   force =     0.00000000    0.00000000    0.00000000
     atom    2 type  2   force =     0.00000000    0.00000000    0.00000000

     Total force =     0.000000     Total SCF correction =     0.000000

     Computing stress (Cartesian axis) and pressure

          total   stress  (Ry/bohr**3)                   (kbar)     P=   -1.10
  -0.00000741   0.00000000   0.00000000         -1.09      0.00      0.00
   0.00000000  -0.00000741   0.00000000          0.00     -1.09      0.00
   0.00000000   0.00000000  -0.00000768          0.00      0.00     -1.13

     Writing output data file CuAu_L10.save/

     General routines

     Parallel routines

   This run was terminated on:  22:14:25  16May2020

   JOB DONE.