     Program PWSCF v.6.4.1 starts on 16May2020 at 15:30:54

     Reading input from PTO_vc_z_7.37_10.pw.in

     Current dimensions of program PWSCF are:
     Max number of different atomic species (ntypx) = 10
     Max number of k-points (npk) =  40000
     Max angular momentum in pseudopotentials (lmaxx) =  3
     Message from routine read_upf::
     Pseudo file Pb.pbe-dn-rrkjus_psl.0.2.2.UPF has been fixed on the fly.
To avoid this message in the future, permanently fix
 your pseudo files following these instructions:
     Message from routine read_upf::
     Pseudo file O.pbe-n-rrkjus_psl.0.1.UPF has been fixed on the fly.
To avoid this message in the future, permanently fix
 your pseudo files following these instructions:
               file Pb.pbe-dn-rrkjus_psl.0.2.2.UPF: wavefunction(s)  6S renormalized

     Subspace diagonalization in iterative solution of the eigenvalue problem:
     a serial algorithm will be used

     bravais-lattice index     =            1
     lattice parameter (alat)  =       7.3700  a.u.
     unit-cell volume          =     400.3156 (a.u.)^3
     number of atoms/cell      =            5
     number of atomic types    =            3
     number of electrons       =        44.00
     number of Kohn-Sham states=           26
     kinetic-energy cutoff     =      80.0000  Ry
     charge density cutoff     =     800.0000  Ry
     convergence threshold     =      1.0E-08
     mixing beta               =       0.7000
     number of iterations used =            8  plain     mixing
     Exchange-correlation      = PBE ( 1  4  3  4 0 0)
     nstep                     =           50

     celldm(1)=   7.370000  celldm(2)=   0.000000  celldm(3)=   0.000000
     celldm(4)=   0.000000  celldm(5)=   0.000000  celldm(6)=   0.000000

     crystal axes: (cart. coord. in units of alat)
               a(1) = (   1.000000   0.000000   0.000000 )
               a(2) = (   0.000000   1.000000   0.000000 )
               a(3) = (   0.000000   0.000000   1.000000 )

     reciprocal axes: (cart. coord. in units 2 pi/alat)
               b(1) = (  1.000000  0.000000  0.000000 )
               b(2) = (  0.000000  1.000000  0.000000 )
               b(3) = (  0.000000  0.000000  1.000000 )

     PseudoPot. # 1 for Pb read from file:
     ./Pb.pbe-dn-rrkjus_psl.0.2.2.UPF
     MD5 check sum: 7afc420059c37d6888fc09c0f121e83f
     Pseudo is Ultrasoft + core correction, Zval = 14.0
     Generated using "atomic" code by A. Dal Corso v.5.0.2 svn rev. 9415
     Using radial grid of 1281 points,  6 beta functions with:
                l(1) =   0
                l(2) =   0
                l(3) =   1
                l(4) =   1
                l(5) =   2
                l(6) =   2
     Q(r) pseudized with 0 coefficients

     PseudoPot. # 2 for Ti read from file:
     ./Ti.pbe-sp-van_ak.UPF
     MD5 check sum: 8e4df49b7f0d34bbd5052bf3f5ea0213
     Pseudo is Ultrasoft, Zval = 12.0
     Generated by new atomic code, or converted to UPF format
     Using radial grid of  851 points,  6 beta functions with:
                l(1) =   0
                l(2) =   0
                l(3) =   1
                l(4) =   1
                l(5) =   2
                l(6) =   2
     Q(r) pseudized with  8 coefficients,  rinner =    1.000   1.000   1.000
                                                       1.000   1.000

     PseudoPot. # 3 for O  read from file:
     ./O.pbe-n-rrkjus_psl.0.1.UPF
     MD5 check sum: e057bbcf3229fb5d8c36c0c92f9568b4
     Pseudo is Ultrasoft + core correction, Zval =  6.0
     Generated using "atomic" code by A. Dal Corso v.5.0.2 svn rev. 9415
     Using radial grid of 1095 points,  4 beta functions with:
                l(1) =   0
                l(2) =   0
                l(3) =   1
                l(4) =   1
     Q(r) pseudized with 0 coefficients

     atomic species   valence    mass     pseudopotential
        Pb            14.00   207.20000     Pb( 1.00)
        Ti            12.00    47.87000     Ti( 1.00)
        O              6.00    16.00000     O ( 1.00)

      8 Sym. Ops. (no inversion) found

   Cartesian axes

     site n.     atom                  positions (alat units)
         1           Pb  tau(   1) = (   0.0000000   0.0000000   0.0000000  )
         2           Ti  tau(   2) = (   0.5000000   0.5000000   0.5480000  )
         3           O   tau(   3) = (   0.5000000   0.5000000   0.0000000  )
         4           O   tau(   4) = (   0.5000000   0.0000000   0.5000000  )
         5           O   tau(   5) = (   0.0000000   0.5000000   0.5000000  )

     number of k points=    75  Marzari-Vanderbilt smearing, width (Ry)=  0.0250
                       cart. coord. in units 2pi/alat
        k(    1) = (   0.0500000   0.0500000   0.0500000), wk =   0.0160000
        k(    2) = (   0.0500000   0.0500000   0.1500000), wk =   0.0160000
        k(    3) = (   0.0500000   0.0500000   0.2500000), wk =   0.0160000
        k(    4) = (   0.0500000   0.0500000   0.3500000), wk =   0.0160000
        k(    5) = (   0.0500000   0.0500000   0.4500000), wk =   0.0160000
        k(    6) = (   0.0500000   0.1500000   0.1500000), wk =   0.0320000
        k(    7) = (   0.0500000   0.1500000   0.2500000), wk =   0.0320000
        k(    8) = (   0.0500000   0.1500000   0.3500000), wk =   0.0320000
        k(    9) = (   0.0500000   0.1500000   0.4500000), wk =   0.0320000
        k(   10) = (   0.0500000   0.2500000   0.2500000), wk =   0.0320000
        k(   11) = (   0.0500000   0.2500000   0.3500000), wk =   0.0320000
        k(   12) = (   0.0500000   0.2500000   0.4500000), wk =   0.0320000
        k(   13) = (   0.0500000   0.3500000   0.3500000), wk =   0.0320000
        k(   14) = (   0.0500000   0.3500000   0.4500000), wk =   0.0320000
        k(   15) = (   0.0500000   0.4500000   0.4500000), wk =   0.0320000
        k(   16) = (   0.1500000   0.1500000   0.1500000), wk =   0.0160000
        k(   17) = (   0.1500000   0.1500000   0.2500000), wk =   0.0160000
        k(   18) = (   0.1500000   0.1500000   0.3500000), wk =   0.0160000
        k(   19) = (   0.1500000   0.1500000   0.4500000), wk =   0.0160000
        k(   20) = (   0.1500000   0.2500000   0.2500000), wk =   0.0320000
        k(   21) = (   0.1500000   0.2500000   0.3500000), wk =   0.0320000
        k(   22) = (   0.1500000   0.2500000   0.4500000), wk =   0.0320000
        k(   23) = (   0.1500000   0.3500000   0.3500000), wk =   0.0320000
        k(   24) = (   0.1500000   0.3500000   0.4500000), wk =   0.0320000
        k(   25) = (   0.1500000   0.4500000   0.4500000), wk =   0.0320000
        k(   26) = (   0.2500000   0.2500000   0.2500000), wk =   0.0160000
        k(   27) = (   0.2500000   0.2500000   0.3500000), wk =   0.0160000
        k(   28) = (   0.2500000   0.2500000   0.4500000), wk =   0.0160000
        k(   29) = (   0.2500000   0.3500000   0.3500000), wk =   0.0320000
        k(   30) = (   0.2500000   0.3500000   0.4500000), wk =   0.0320000
        k(   31) = (   0.2500000   0.4500000   0.4500000), wk =   0.0320000
        k(   32) = (   0.3500000   0.3500000   0.3500000), wk =   0.0160000
        k(   33) = (   0.3500000   0.3500000   0.4500000), wk =   0.0160000
        k(   34) = (   0.3500000   0.4500000   0.4500000), wk =   0.0320000
        k(   35) = (   0.4500000   0.4500000   0.4500000), wk =   0.0160000
        k(   36) = (   0.1500000  -0.0500000   0.0500000), wk =   0.0320000
        k(   37) = (   0.2500000  -0.0500000   0.0500000), wk =   0.0320000
        k(   38) = (   0.3500000  -0.0500000   0.0500000), wk =   0.0320000
        k(   39) = (   0.4500000  -0.0500000   0.0500000), wk =   0.0320000
        k(   40) = (   0.1500000  -0.1500000   0.0500000), wk =   0.0160000
        k(   41) = (   0.2500000  -0.1500000   0.0500000), wk =   0.0320000
        k(   42) = (  -0.0500000   0.2500000   0.1500000), wk =   0.0320000
        k(   43) = (   0.3500000  -0.1500000   0.0500000), wk =   0.0320000
        k(   44) = (  -0.0500000   0.3500000   0.1500000), wk =   0.0320000
        k(   45) = (   0.4500000  -0.1500000   0.0500000), wk =   0.0320000
        k(   46) = (  -0.0500000   0.4500000   0.1500000), wk =   0.0320000
        k(   47) = (   0.2500000  -0.2500000   0.0500000), wk =   0.0160000
        k(   48) = (   0.3500000  -0.2500000   0.0500000), wk =   0.0320000
        k(   49) = (  -0.0500000   0.3500000   0.2500000), wk =   0.0320000
        k(   50) = (   0.4500000  -0.2500000   0.0500000), wk =   0.0320000
        k(   51) = (  -0.0500000   0.4500000   0.2500000), wk =   0.0320000
        k(   52) = (   0.3500000  -0.3500000   0.0500000), wk =   0.0160000
        k(   53) = (   0.4500000  -0.3500000   0.0500000), wk =   0.0320000
        k(   54) = (  -0.0500000   0.4500000   0.3500000), wk =   0.0320000
        k(   55) = (   0.4500000  -0.4500000   0.0500000), wk =   0.0160000
        k(   56) = (   0.2500000  -0.1500000   0.1500000), wk =   0.0320000
        k(   57) = (   0.3500000  -0.1500000   0.1500000), wk =   0.0320000
        k(   58) = (   0.4500000  -0.1500000   0.1500000), wk =   0.0320000
        k(   59) = (   0.2500000  -0.2500000   0.1500000), wk =   0.0160000
        k(   60) = (   0.3500000  -0.2500000   0.1500000), wk =   0.0320000
        k(   61) = (  -0.1500000   0.3500000   0.2500000), wk =   0.0320000
        k(   62) = (   0.4500000  -0.2500000   0.1500000), wk =   0.0320000
        k(   63) = (  -0.1500000   0.4500000   0.2500000), wk =   0.0320000
        k(   64) = (   0.3500000  -0.3500000   0.1500000), wk =   0.0160000
        k(   65) = (   0.4500000  -0.3500000   0.1500000), wk =   0.0320000
        k(   66) = (  -0.1500000   0.4500000   0.3500000), wk =   0.0320000
        k(   67) = (   0.4500000  -0.4500000   0.1500000), wk =   0.0160000
        k(   68) = (   0.3500000  -0.2500000   0.2500000), wk =   0.0320000
        k(   69) = (   0.4500000  -0.2500000   0.2500000), wk =   0.0320000
        k(   70) = (   0.3500000  -0.3500000   0.2500000), wk =   0.0160000
        k(   71) = (   0.4500000  -0.3500000   0.2500000), wk =   0.0320000
        k(   72) = (  -0.2500000   0.4500000   0.3500000), wk =   0.0320000
        k(   73) = (   0.4500000  -0.4500000   0.2500000), wk =   0.0160000
        k(   74) = (   0.4500000  -0.3500000   0.3500000), wk =   0.0320000
        k(   75) = (   0.4500000  -0.4500000   0.3500000), wk =   0.0160000

     Check: negative core charge=   -0.000005

     Initial potential from superposition of free atoms

     starting charge   42.99760, renormalised to   44.00000
     Starting wfcs are   31 randomized atomic wfcs

     Self-consistent Calculation

     iteration #  1     ecut=    80.00 Ry     beta= 0.70
     Davidson diagonalization with overlap
     ethr =  1.00E-02,  avg # of iterations =  2.0

     total energy              =    -364.41345173 Ry
     Harris-Foulkes estimate   =    -365.28005029 Ry
     estimated scf accuracy    <       1.09009368 Ry

[...]

     End of self-consistent calculation

          k = 0.0500 0.0500 0.0500 (  4855 PWs)   bands (ev):

   -45.1037 -21.5104 -21.3790 -21.3789  -6.7027  -5.6237  -5.5041  -4.2145
[...]

     convergence has been achieved in  12 iterations

     Forces acting on atoms (cartesian axes, Ry/au):

     atom    1 type  1   force =     0.00000000    0.00000000    0.02085215
     atom    2 type  2   force =     0.00000000    0.00000000   -0.05907654
     atom    3 type  3   force =     0.00000000    0.00000000    0.03804823
     atom    4 type  3   force =     0.00000000    0.00000000    0.00008808
     atom    5 type  3   force =     0.00000000    0.00000000    0.00008808

     Total force =     0.073298     Total SCF correction =     0.000116

     Computing stress (Cartesian axis) and pressure

          total   stress  (Ry/bohr**3)                   (kbar)     P=  112.86
   0.00064452   0.00000000   0.00000000         94.81      0.00      0.00
   0.00000000   0.00064452   0.00000000          0.00     94.81      0.00
   0.00000000   0.00000000   0.00101249          0.00      0.00    148.94

     BFGS Geometry Optimization

     number of scf cycles    =   1
     number of bfgs steps    =   0

     enthalpy new            =    -364.9453145901 Ry

     new trust radius        =       0.1012894145 bohr
     new conv_thr            =       0.0000000100 Ry

     new unit-cell volume =    410.44849 a.u.^3 (    60.82219 Ang^3 )
     density =      8.27428 g/cm^3

CELL_PARAMETERS (alat=  7.37000000)
   1.000000000   0.000000000   0.000000000
   0.000000000   1.000000000   0.000000000
   0.000000000   0.000000000   1.025312372

ATOMIC_POSITIONS (crystal)
Pb       0.000000000   0.000000000   0.002829329
Ti       0.500000000   0.500000000   0.539984187
O        0.500000000   0.500000000   0.005162582
O        0.500000000   0.000000000   0.500011951
O        0.000000000   0.500000000   0.500011951

     Writing output data file PbTiO3.save/
     NEW-OLD atomic charge density approx. for the potential

     Check: negative core charge=   -0.000006
     extrapolated charge   45.06150, renormalised to   44.00000

[...]

     enthalpy old            =    -364.9453145901 Ry
     enthalpy new            =    -364.9542805179 Ry

     CASE: enthalpy_new < enthalpy_old

[...]

     iteration #  1     ecut=    80.00 Ry     beta= 0.70
     Davidson diagonalization with overlap
     c_bands:  1 eigenvalues not converged
     ethr =  1.00E-06,  avg # of iterations =  7.3

[...]

     WARNING: bfgs curvature condition failed, Theta= 0.992
     new trust radius        =       0.0225040973 bohr
     new conv_thr            =       0.0000000015 Ry

[...]

     iteration #  1     ecut=    80.00 Ry     beta= 0.70
     Davidson diagonalization with overlap
     c_bands:  1 eigenvalues not converged
     c_bands:  1 eigenvalues not converged
     c_bands:  1 eigenvalues not converged
     ethr =  1.00E-06,  avg # of iterations =  8.2

[...]

     number of scf cycles    =  19
     number of bfgs steps    =  18

     enthalpy old            =    -364.9716747664 Ry
     enthalpy new            =    -364.9717872131 Ry

     CASE: enthalpy_new < enthalpy_old

     new trust radius        =       0.0046465436 bohr
     new conv_thr            =       0.0000000001 Ry

     new unit-cell volume =    468.81678 a.u.^3 (    69.47148 Ang^3 )
     density =      7.24412 g/cm^3

[...]

ATOMIC_POSITIONS (crystal)
Pb       0.000000000   0.000000000   0.120261934
Ti       0.500000000   0.500000000   0.562476866
O        0.500000000   0.500000000  -0.056760988
O        0.500000000   0.000000000   0.461011094
O        0.000000000   0.500000000   0.461011094

     Writing output data file PbTiO3.save/
     NEW-OLD atomic charge density approx. for the potential

     Check: negative core charge=   -0.000009
     extrapolated charge   43.96142, renormalised to   44.00000

[...]

     bfgs converged in  20 scf cycles and  19 bfgs steps
     (criteria: energy <  1.0E-04 Ry, force <  1.0E-03Ry/Bohr, cell <  5.0E-01kbar)

     End of BFGS Geometry Optimization

     Final enthalpy =    -364.9717894397 Ry
Begin final coordinates
     new unit-cell volume =    468.81678 a.u.^3 (    69.47148 Ang^3 )
     density =      7.24412 g/cm^3

CELL_PARAMETERS (alat=  7.37000000)
   1.000000000   0.000000000   0.000000000
   0.000000000   1.000000000   0.000000000
   0.000000000   0.000000000   1.171118079

ATOMIC_POSITIONS (crystal)
Pb       0.000000000   0.000000000   0.120261934
Ti       0.500000000   0.500000000   0.562476866
O        0.500000000   0.500000000  -0.056760988
O        0.500000000   0.000000000   0.461011094
O        0.000000000   0.500000000   0.461011094
End final coordinates

     Writing output data file PbTiO3.save/

     A final scf calculation at the relaxed structure.
     The G-vectors are recalculated for the final unit cell
     Results may differ from those at the preceding step.

     bravais-lattice index     =            1
     lattice parameter (alat)  =       7.3700  a.u.
     unit-cell volume          =     468.8168 (a.u.)^3
     number of atoms/cell      =            5
     number of atomic types    =            3
     number of electrons       =        44.00
     number of Kohn-Sham states=           26
     kinetic-energy cutoff     =      80.0000  Ry
     charge density cutoff     =     800.0000  Ry
     convergence threshold     =      1.1E-10
     mixing beta               =       0.7000
     number of iterations used =            8  plain     mixing
     Exchange-correlation      = PBE ( 1  4  3  4 0 0)

     celldm(1)=   7.370000  celldm(2)=   0.000000  celldm(3)=   0.000000
     celldm(4)=   0.000000  celldm(5)=   0.000000  celldm(6)=   0.000000

     crystal axes: (cart. coord. in units of alat)
               a(1) = (   1.000000   0.000000   0.000000 )
               a(2) = (   0.000000   1.000000   0.000000 )
               a(3) = (   0.000000   0.000000   1.171118 )

     reciprocal axes: (cart. coord. in units 2 pi/alat)
               b(1) = (  1.000000  0.000000  0.000000 )
               b(2) = (  0.000000  1.000000  0.000000 )
               b(3) = (  0.000000  0.000000  0.853885 )

     PseudoPot. # 1 for Pb read from file:
     ./Pb.pbe-dn-rrkjus_psl.0.2.2.UPF
     MD5 check sum: 7afc420059c37d6888fc09c0f121e83f
     Pseudo is Ultrasoft + core correction, Zval = 14.0
     Generated using "atomic" code by A. Dal Corso v.5.0.2 svn rev. 9415
     Using radial grid of 1281 points,  6 beta functions with:
                l(1) =   0
                l(2) =   0
                l(3) =   1
                l(4) =   1
                l(5) =   2
                l(6) =   2
     Q(r) pseudized with 0 coefficients

     PseudoPot. # 2 for Ti read from file:
     ./Ti.pbe-sp-van_ak.UPF
     MD5 check sum: 8e4df49b7f0d34bbd5052bf3f5ea0213
     Pseudo is Ultrasoft, Zval = 12.0
     Generated by new atomic code, or converted to UPF format
     Using radial grid of  851 points,  6 beta functions with:
                l(1) =   0
                l(2) =   0
                l(3) =   1
                l(4) =   1
                l(5) =   2
                l(6) =   2
     Q(r) pseudized with  8 coefficients,  rinner =    1.000   1.000   1.000
                                                       1.000   1.000

     PseudoPot. # 3 for O  read from file:
     ./O.pbe-n-rrkjus_psl.0.1.UPF
     MD5 check sum: e057bbcf3229fb5d8c36c0c92f9568b4
     Pseudo is Ultrasoft + core correction, Zval =  6.0
     Generated using "atomic" code by A. Dal Corso v.5.0.2 svn rev. 9415
     Using radial grid of 1095 points,  4 beta functions with:
                l(1) =   0
                l(2) =   0
                l(3) =   1
                l(4) =   1
     Q(r) pseudized with 0 coefficients

     atomic species   valence    mass     pseudopotential
        Pb            14.00   207.20000     Pb( 1.00)
        Ti            12.00    47.87000     Ti( 1.00)
        O              6.00    16.00000     O ( 1.00)

      8 Sym. Ops. (no inversion) found

   Cartesian axes

     site n.     atom                  positions (alat units)
         1           Pb  tau(   1) = (   0.0000000   0.0000000   0.1408409  )
         2           Ti  tau(   2) = (   0.5000000   0.5000000   0.6587268  )
         3           O   tau(   3) = (   0.5000000   0.5000000  -0.0664738  )
         4           O   tau(   4) = (   0.5000000   0.0000000   0.5398984  )
         5           O   tau(   5) = (   0.0000000   0.5000000   0.5398984  )

     number of k points=    75  Marzari-Vanderbilt smearing, width (Ry)=  0.0250
                       cart. coord. in units 2pi/alat
        k(    1) = (   0.0500000   0.0500000   0.0426942), wk =   0.0160000
        k(    2) = (   0.0500000   0.0500000   0.1280827), wk =   0.0160000
        k(    3) = (   0.0500000   0.0500000   0.2134712), wk =   0.0160000
        k(    4) = (   0.0500000   0.0500000   0.2988597), wk =   0.0160000
        k(    5) = (   0.0500000   0.0500000   0.3842482), wk =   0.0160000
        k(    6) = (   0.0500000   0.1500000   0.1280827), wk =   0.0320000
        k(    7) = (   0.0500000   0.1500000   0.2134712), wk =   0.0320000
        k(    8) = (   0.0500000   0.1500000   0.2988597), wk =   0.0320000
        k(    9) = (   0.0500000   0.1500000   0.3842482), wk =   0.0320000
        k(   10) = (   0.0500000   0.2500000   0.2134712), wk =   0.0320000
        k(   11) = (   0.0500000   0.2500000   0.2988597), wk =   0.0320000
        k(   12) = (   0.0500000   0.2500000   0.3842482), wk =   0.0320000
        k(   13) = (   0.0500000   0.3500000   0.2988597), wk =   0.0320000
        k(   14) = (   0.0500000   0.3500000   0.3842482), wk =   0.0320000
        k(   15) = (   0.0500000   0.4500000   0.3842482), wk =   0.0320000
        k(   16) = (   0.1500000   0.1500000   0.1280827), wk =   0.0160000
        k(   17) = (   0.1500000   0.1500000   0.2134712), wk =   0.0160000
        k(   18) = (   0.1500000   0.1500000   0.2988597), wk =   0.0160000
        k(   19) = (   0.1500000   0.1500000   0.3842482), wk =   0.0160000
        k(   20) = (   0.1500000   0.2500000   0.2134712), wk =   0.0320000
        k(   21) = (   0.1500000   0.2500000   0.2988597), wk =   0.0320000
        k(   22) = (   0.1500000   0.2500000   0.3842482), wk =   0.0320000
        k(   23) = (   0.1500000   0.3500000   0.2988597), wk =   0.0320000
        k(   24) = (   0.1500000   0.3500000   0.3842482), wk =   0.0320000
        k(   25) = (   0.1500000   0.4500000   0.3842482), wk =   0.0320000
        k(   26) = (   0.2500000   0.2500000   0.2134712), wk =   0.0160000
        k(   27) = (   0.2500000   0.2500000   0.2988597), wk =   0.0160000
        k(   28) = (   0.2500000   0.2500000   0.3842482), wk =   0.0160000
        k(   29) = (   0.2500000   0.3500000   0.2988597), wk =   0.0320000
        k(   30) = (   0.2500000   0.3500000   0.3842482), wk =   0.0320000
        k(   31) = (   0.2500000   0.4500000   0.3842482), wk =   0.0320000
        k(   32) = (   0.3500000   0.3500000   0.2988597), wk =   0.0160000
        k(   33) = (   0.3500000   0.3500000   0.3842482), wk =   0.0160000
        k(   34) = (   0.3500000   0.4500000   0.3842482), wk =   0.0320000
        k(   35) = (   0.4500000   0.4500000   0.3842482), wk =   0.0160000
        k(   36) = (   0.1500000  -0.0500000   0.0426942), wk =   0.0320000
        k(   37) = (   0.2500000  -0.0500000   0.0426942), wk =   0.0320000
        k(   38) = (   0.3500000  -0.0500000   0.0426942), wk =   0.0320000
        k(   39) = (   0.4500000  -0.0500000   0.0426942), wk =   0.0320000
        k(   40) = (   0.1500000  -0.1500000   0.0426942), wk =   0.0160000
        k(   41) = (   0.2500000  -0.1500000   0.0426942), wk =   0.0320000
        k(   42) = (  -0.0500000   0.2500000   0.1280827), wk =   0.0320000
        k(   43) = (   0.3500000  -0.1500000   0.0426942), wk =   0.0320000
        k(   44) = (  -0.0500000   0.3500000   0.1280827), wk =   0.0320000
        k(   45) = (   0.4500000  -0.1500000   0.0426942), wk =   0.0320000
        k(   46) = (  -0.0500000   0.4500000   0.1280827), wk =   0.0320000
        k(   47) = (   0.2500000  -0.2500000   0.0426942), wk =   0.0160000
        k(   48) = (   0.3500000  -0.2500000   0.0426942), wk =   0.0320000
        k(   49) = (  -0.0500000   0.3500000   0.2134712), wk =   0.0320000
        k(   50) = (   0.4500000  -0.2500000   0.0426942), wk =   0.0320000
        k(   51) = (  -0.0500000   0.4500000   0.2134712), wk =   0.0320000
        k(   52) = (   0.3500000  -0.3500000   0.0426942), wk =   0.0160000
        k(   53) = (   0.4500000  -0.3500000   0.0426942), wk =   0.0320000
        k(   54) = (  -0.0500000   0.4500000   0.2988597), wk =   0.0320000
        k(   55) = (   0.4500000  -0.4500000   0.0426942), wk =   0.0160000
        k(   56) = (   0.2500000  -0.1500000   0.1280827), wk =   0.0320000
        k(   57) = (   0.3500000  -0.1500000   0.1280827), wk =   0.0320000
        k(   58) = (   0.4500000  -0.1500000   0.1280827), wk =   0.0320000
        k(   59) = (   0.2500000  -0.2500000   0.1280827), wk =   0.0160000
        k(   60) = (   0.3500000  -0.2500000   0.1280827), wk =   0.0320000
        k(   61) = (  -0.1500000   0.3500000   0.2134712), wk =   0.0320000
        k(   62) = (   0.4500000  -0.2500000   0.1280827), wk =   0.0320000
        k(   63) = (  -0.1500000   0.4500000   0.2134712), wk =   0.0320000
        k(   64) = (   0.3500000  -0.3500000   0.1280827), wk =   0.0160000
        k(   65) = (   0.4500000  -0.3500000   0.1280827), wk =   0.0320000
        k(   66) = (  -0.1500000   0.4500000   0.2988597), wk =   0.0320000
        k(   67) = (   0.4500000  -0.4500000   0.1280827), wk =   0.0160000
        k(   68) = (   0.3500000  -0.2500000   0.2134712), wk =   0.0320000
        k(   69) = (   0.4500000  -0.2500000   0.2134712), wk =   0.0320000
        k(   70) = (   0.3500000  -0.3500000   0.2134712), wk =   0.0160000
        k(   71) = (   0.4500000  -0.3500000   0.2134712), wk =   0.0320000
        k(   72) = (  -0.2500000   0.4500000   0.2988597), wk =   0.0320000
        k(   73) = (   0.4500000  -0.4500000   0.2134712), wk =   0.0160000
        k(   74) = (   0.4500000  -0.3500000   0.2988597), wk =   0.0320000
        k(   75) = (   0.4500000  -0.4500000   0.2988597), wk =   0.0160000

     Check: negative core charge=   -0.000005

     Initial potential from superposition of free atoms

     starting charge   42.99760, renormalised to   44.00000
     Starting wfcs are   31 randomized atomic wfcs

     Self-consistent Calculation

[...]

     total energy              =    -364.97276798 Ry
     Harris-Foulkes estimate   =    -364.97276798 Ry
     estimated scf accuracy    <          2.8E-10 Ry

     iteration # 14     ecut=    80.00 Ry     beta= 0.70
     Davidson diagonalization with overlap
     ethr =  6.38E-13,  avg # of iterations =  2.9

     End of self-consistent calculation

[...]

          k =-0.2500 0.4500 0.2989 (  5655 PWs)   bands (ev):

[...]

          k = 0.4500-0.4500 0.2989 (  5632 PWs)   bands (ev):

   -47.6548 -24.0951 -23.9438 -23.9437  -7.9400  -7.9216  -7.6617  -6.4768
    -6.4538  -6.3311  -6.1391  -6.1288   1.8608   4.4578   4.5972   4.6497
     5.3142   5.8359   5.9831   7.7818   7.7992   8.5867  12.1822  12.2007
    12.5691  14.0796

     the Fermi energy is     8.7915 ev

!    total energy              =    -364.97276798 Ry
     Harris-Foulkes estimate   =    -364.97276798 Ry
     estimated scf accuracy    <          2.7E-11 Ry

     The total energy is the sum of the following terms:

     one-electron contribution =    -110.12824904 Ry
     hartree contribution      =      81.85973072 Ry
     xc contribution           =     -85.77379607 Ry
     ewald contribution        =    -250.93448197 Ry
     smearing contrib. (-TS)   =       0.00402837 Ry

     convergence has been achieved in  14 iterations

     Forces acting on atoms (cartesian axes, Ry/au):

     atom    1 type  1   force =     0.00000000    0.00000000    0.00005900
     atom    2 type  2   force =     0.00000000    0.00000000   -0.00013589
     atom    3 type  3   force =     0.00000000    0.00000000    0.00000031
     atom    4 type  3   force =     0.00000000    0.00000000    0.00003829
     atom    5 type  3   force =     0.00000000    0.00000000    0.00003829

     Total force =     0.000158     Total SCF correction =     0.000006

     Computing stress (Cartesian axis) and pressure

          total   stress  (Ry/bohr**3)                   (kbar)     P=  -14.83
  -0.00016055   0.00000000   0.00000000        -23.62      0.00      0.00
   0.00000000  -0.00016055   0.00000000          0.00    -23.62      0.00
   0.00000000   0.00000000   0.00001861          0.00      0.00      2.74

     Writing output data file PbTiO3.save/

     General routines

     Parallel routines

   This run was terminated on:  18:56:14  16May2020

   JOB DONE.